c random clauses
p cnf 21 16
-21 -20 -18 -14 -2 1 12 15 0
-21 -13 -11 -8 -4 -2 1 20 0
-21 -11 -10 -6 -5 -4 -1 12 0
-20 -6 -5 -3 9 10 13 21 0
-20 -2 6 11 14 16 18 21 0
-18 -17 -16 -10 -6 -1 8 15 0
-18 -13 -10 -7 -2 3 4 9 0
-17 -15 -11 -3 -2 4 18 20 0
-17 -14 -11 -8 -6 -4 5 12 0
-17 -11 -10 -7 -3 9 15 16 0
-17 -9 5 6 12 14 19 21 0
-17 -7 -3 -2 6 12 14 19 0
-16 -15 -11 -1 8 12 13 19 0
-16 -8 -5 -4 -2 3 10 19 0
-11 -10 -3 1 4 12 17 20 0
-11 -1 2 5 10 14 20 21 0
